n_res = 4;
rc = [ 28, 28, 50, 33 ];
n_tasks = 60;
d = [ 2, 9, 9, 4, 2, 8, 9, 1, 4, 9, 4, 3, 6, 1, 3, 5, 2, 4, 7, 5, 7, 5, 5, 10, 2, 1, 4, 8, 3, 1, 9, 9, 7, 3, 6, 10, 6, 6, 9, 4, 7, 5, 4, 7, 6, 1, 7, 6, 3, 1, 2, 2, 5, 5, 1, 9, 2, 4, 1, 7 ];
rr = [| 2, 8, 0, 7, 0, 0, 0, 2, 0, 0, 0, 4, 0, 0, 0, 7, 8, 0, 0, 0, 2, 0, 2, 0, 0, 1, 4, 0, 2, 0, 5, 0, 4, 0, 8, 0, 0, 0, 0, 0, 6, 3, 5, 10, 5, 2, 2, 10, 0, 0, 3, 0, 0, 0, 0, 0, 0, 2, 4, 3
      | 0, 4, 3, 0, 0, 10, 0, 4, 0, 0, 7, 8, 3, 3, 0, 0, 9, 0, 9, 0, 10, 0, 0, 0, 3, 0, 0, 0, 10, 0, 0, 0, 0, 0, 0, 0, 0, 1, 7, 0, 0, 0, 0, 1, 6, 2, 1, 0, 3, 4, 0, 0, 0, 1, 2, 7, 5, 0, 0, 3
      | 10, 0, 0, 10, 0, 5, 4, 10, 0, 8, 1, 0, 5, 0, 0, 6, 6, 5, 1, 7, 8, 0, 4, 7, 0, 1, 10, 6, 0, 0, 0, 10, 7, 9, 0, 9, 10, 0, 2, 5, 4, 6, 9, 0, 5, 5, 8, 8, 9, 0, 0, 7, 10, 0, 10, 0, 10, 10, 0, 6
      | 9, 0, 0, 0, 1, 8, 0, 3, 5, 0, 8, 0, 0, 0, 4, 0, 7, 0, 0, 5, 0, 7, 1, 2, 10, 0, 0, 0, 0, 5, 0, 9, 0, 8, 8, 9, 0, 9, 9, 7, 0, 0, 0, 0, 0, 6, 0, 0, 3, 5, 0, 0, 6, 0, 0, 2, 8, 0, 6, 0 |];
suc = [ { 4, 5, 37 },
       { 11, 32 },
       { 12, 22, 23 },
       { 7 },
       { 6, 10, 21 },
       { 8 },
       { 16, 17, 27 },
       { 9, 18, 31 },
       { 38, 55, 59 },
       { 28 },
       { 13, 14 },
       { 25, 28, 42 },
       { 30, 36, 56 },
       { 15, 29, 34 },
       { 48 },
       { 43, 53 },
       { 19, 20 },
       { 51 },
       { 24 },
       { 26 },
       { 31 },
       { 40 },
       { 39, 41, 52 },
       { 58 },
       { 31 },
       { 33, 39, 45 },
       { 38 },
       { 40, 44 },
       { 37, 50 },
       { 46, 60 },
       { 40 },
       { 53 },
       { 47 },
       { 35 },
       { 52 },
       { 47 },
       { 54 },
       { 49 },
       { 43 },
       { 57 },
       { 57 },
       { 54 },
       { 49 },
       { 47, 57 },
       { 48 },
       { 49 },
       { 59 },
       { 50 },
       { 50 },
       { 58 },
       { 54 },
       { 60 },
       { 55 },
       { 56 },
       { 58 },
       { 60 },
       { 59 },
       {  },
       {  },
       {  } ];
